3226.24
0 12 18 20 17 37 16 24 11 13 21 9 7 8 2 1 3 5 6 4 10 0
0 31 32 38 46 19 15 23 53 0
0 28 30 36 34 33 27 25 26 51 0
0 29 39 41 45 48 40 22 90 54 0
0 35 49 42 43 44 57 55 56 0
0 65 70 68 91 14 61 52 62 47 59 74 58 75 77 0
0 84 82 81 85 86 87 66 69 67 79 76 80 73 72 63 60 64 0
0 83 95 71 0
0 88 89 92 98 99 78 100 0
0 93 94 50 0
0 96 97 0
